
Gurobi 11.0.2 (win64) logging started Sun Aug 18 13:49:41 2024

Set parameter LogFile to value "D:\Documenti\Scuola\Laurea magistrale unibs\laurea-unibs-mkfsp\output\2024-08-18T10_03_15.889499\logs\instance11_bucket6.log"
Set parameter TimeLimit to value 2.2340588910000042e+02
Set parameter MIPGap to value 0
Gurobi Optimizer version 11.0.2 build v11.0.2rc0 (win64 - Windows 10.0 (19045.2))

CPU model: Intel(R) Core(TM) i5-4670 CPU @ 3.40GHz, instruction set [SSE2|AVX|AVX2]
Thread count: 4 physical cores, 4 logical processors, using up to 4 threads

Optimize a model with 5866 rows, 26044 columns and 726669 nonzeros
Model fingerprint: 0x383dd357
Variable types: 0 continuous, 26044 integer (25742 binary)
Coefficient statistics:
  Matrix range     [1e+00, 9e+03]
  Objective range  [6e+02, 9e+03]
  Bounds range     [1e+00, 1e+00]
  RHS range        [1e+00, 1e+06]
Presolve time: 1.78s
Presolved: 5866 rows, 26044 columns, 726669 nonzeros
Variable types: 0 continuous, 26044 integer (25742 binary)
Deterministic concurrent LP optimizer: primal simplex, dual simplex, and barrier
Showing barrier log only...

Root barrier log...

Ordering time: 0.13s

Barrier statistics:
 AA' NZ     : 7.803e+05
 Factor NZ  : 8.801e+05 (roughly 18 MB of memory)
 Factor Ops : 2.930e+08 (less than 1 second per iteration)
 Threads    : 1

                  Objective                Residual
Iter       Primal          Dual         Primal    Dual     Compl     Time
   0   9.90903548e+07  1.18397787e+08  4.94e+06 0.00e+00  6.50e+05     3s
   1   1.88220066e+07  1.22865247e+08  8.19e+05 5.12e-13  1.16e+05     3s
   2   1.49523636e+06  1.12124493e+08  6.63e+03 5.12e-13  3.25e+03     3s
   3   1.36037742e+06  1.73621424e+07  3.82e+01 2.84e-13  3.45e+02     4s
   4   1.42285628e+06  2.87457392e+06  5.82e-14 7.11e-14  3.11e+01     4s
   5   1.48203232e+06  1.61917656e+06  3.55e-14 3.99e-14  2.94e+00     4s
   6   1.49407374e+06  1.51389848e+06  8.97e-14 2.86e-14  4.25e-01     4s
   7   1.49704739e+06  1.50165395e+06  2.35e-13 5.01e-14  9.87e-02     4s
   8   1.49816955e+06  1.49897557e+06  4.10e-13 3.92e-14  1.73e-02     5s
   9   1.49863986e+06  1.49869591e+06  4.49e-12 3.66e-14  1.20e-03     5s
  10   1.49866146e+06  1.49867384e+06  2.31e-11 3.92e-14  2.65e-04     5s
  11   1.49866976e+06  1.49867058e+06  2.32e-10 3.96e-14  1.77e-05     6s
  12   1.49867021e+06  1.49867029e+06  7.59e-12 3.75e-14  1.61e-06     6s
  13   1.49867023e+06  1.49867027e+06  5.64e-08 3.02e-14  8.60e-07     6s
  14   1.49867026e+06  1.49867027e+06  1.39e-07 3.31e-14  2.11e-07     6s
  15   1.49867027e+06  1.49867027e+06  7.13e-10 3.84e-14  3.10e-11     6s

Barrier solved model in 15 iterations and 6.28 seconds (3.29 work units)
Optimal objective 1.49867027e+06


Root crossover log...

    1946 DPushes remaining with DInf 0.0000000e+00                 9s
       0 DPushes remaining with DInf 0.0000000e+00                10s

      83 PPushes remaining with PInf 6.3703073e-04                10s
       0 PPushes remaining with PInf 0.0000000e+00                10s

  Push phase complete: Pinf 0.0000000e+00, Dinf 1.6076214e-11     10s


Root simplex log...

Iteration    Objective       Primal Inf.    Dual Inf.      Time
    2031    1.4986703e+06   0.000000e+00   0.000000e+00     10s
Concurrent spin time: 0.00s

Solved with barrier
    2031    1.4986703e+06   0.000000e+00   0.000000e+00     10s

Root relaxation: objective 1.498670e+06, 2031 iterations, 7.69 seconds (3.56 work units)
Total elapsed time = 31.09s (DegenMoves)
Total elapsed time = 38.38s (DegenMoves)
Total elapsed time = 48.73s (DegenMoves)
Total elapsed time = 59.54s (DegenMoves)

    Nodes    |    Current Node    |     Objective Bounds      |     Work
 Expl Unexpl |  Obj  Depth IntInf | Incumbent    BestBd   Gap | It/Node Time

     0     0 1498670.27    0 2101          - 1498670.27      -     -   69s
H    0     0                    1325811.0000 1498669.62  13.0%     -   76s
     0     0 1498666.38    0 3485 1325811.00 1498666.38  13.0%     -  101s
H    0     0                    1326505.0000 1498666.38  13.0%     -  101s
H    0     0                    1335773.0000 1498666.38  12.2%     -  103s
     0     0 1498648.67    0 2719 1335773.00 1498648.67  12.2%     -  135s
     0     0 1498646.95    0 3771 1335773.00 1498646.95  12.2%     -  223s

Cutting planes:
  Gomory: 3
  Cover: 1473
  Clique: 267
  MIR: 410
  StrongCG: 4
  Zero half: 1

Explored 1 nodes (109787 simplex iterations) in 223.47 seconds (191.52 work units)
Thread count was 4 (of 4 available processors)

Solution count 3: 1.33577e+06 1.32651e+06 1.32581e+06 

Time limit reached
Best objective 1.335773000000e+06, best bound 1.498646948763e+06, gap 12.1932%
